c FILE /home/rafael/Documents/HappySet/MIHS/inputs/happygen/output/graph_scale_free_k4_p0.1_v50_20241127_082422.txt
c SOURCE This is a scale-free graph formed for the happy graph colouring problem.
c DESCRIPTION It was generated using the problem generator of Rhyd Lewis
c
c GRAPH STATS
c Seed                             = -1951154386
c Number of Nodes                  = 50
c Number of colours k              = 4
c Number of pre-assignments        = 5
c Number of links per new node     = 5
c Density                          = 0.191837
c 
c The degrees of nodes 1 to 50, respectively, are as follows 
c [30, 24, 20, 19, 19, 17, 15, 15, 14, 13, 12, 12, 11, 11, 11, 10, 10, 10, 10, 9, 8, 8, 8, 7, 7, 7, 
c  7, 7, 7, 6, 6, 6, 6, 6, 6, 6, 5, 5, 5, 5, 5, 5, 5, 5, 5, 5, 5, 5, 5, 5] 
c  
p edge 50 235 4
e 1 2
e 1 3
e 1 4
e 1 6
e 1 7
e 1 8
e 1 9
e 1 10
e 1 12
e 1 14
e 1 15
e 1 16
e 1 17
e 1 18
e 1 20
e 1 21
e 1 22
e 1 24
e 1 25
e 1 26
e 1 30
e 1 31
e 1 33
e 1 34
e 1 37
e 1 38
e 1 39
e 1 40
e 1 41
e 1 44
e 2 3
e 2 5
e 2 6
e 2 7
e 2 8
e 2 11
e 2 13
e 2 14
e 2 16
e 2 20
e 2 22
e 2 23
e 2 24
e 2 28
e 2 32
e 2 33
e 2 34
e 2 42
e 2 43
e 2 46
e 2 47
e 2 48
e 2 50
e 3 4
e 3 7
e 3 8
e 3 9
e 3 11
e 3 12
e 3 15
e 3 16
e 3 17
e 3 19
e 3 22
e 3 27
e 3 34
e 3 36
e 3 37
e 3 46
e 3 47
e 3 49
e 4 6
e 4 7
e 4 8
e 4 9
e 4 11
e 4 12
e 4 13
e 4 14
e 4 20
e 4 23
e 4 25
e 4 28
e 4 30
e 4 33
e 4 35
e 4 36
e 4 44
e 5 6
e 5 7
e 5 12
e 5 15
e 5 16
e 5 17
e 5 18
e 5 22
e 5 25
e 5 26
e 5 27
e 5 29
e 5 35
e 5 36
e 5 41
e 5 42
e 5 45
e 5 46
e 6 8
e 6 9
e 6 13
e 6 18
e 6 19
e 6 21
e 6 24
e 6 26
e 6 37
e 6 39
e 6 42
e 6 44
e 6 48
e 7 8
e 7 9
e 7 10
e 7 11
e 7 16
e 7 19
e 7 21
e 7 32
e 7 37
e 7 50
e 8 9
e 8 12
e 8 14
e 8 16
e 8 20
e 8 24
e 8 26
e 8 45
e 8 49
e 9 13
e 9 15
e 9 16
e 9 17
e 9 21
e 9 27
e 9 43
e 9 49
e 10 12
e 10 13
e 10 17
e 10 19
e 10 25
e 10 27
e 10 31
e 10 32
e 10 38
e 10 45
e 10 50
e 11 13
e 11 14
e 11 15
e 11 16
e 11 24
e 11 29
e 11 30
e 11 38
e 12 13
e 12 18
e 12 20
e 12 40
e 12 47
e 12 48
e 13 23
e 13 30
e 13 34
e 13 43
e 14 17
e 14 18
e 14 25
e 14 27
e 14 30
e 14 39
e 15 21
e 15 23
e 15 29
e 15 33
e 15 36
e 15 48
e 16 34
e 16 43
e 17 29
e 17 39
e 17 40
e 17 41
e 18 29
e 18 32
e 18 36
e 18 37
e 18 41
e 19 25
e 19 28
e 19 31
e 19 38
e 19 46
e 19 47
e 20 28
e 20 31
e 20 32
e 20 35
e 21 22
e 21 38
e 21 48
e 22 26
e 22 35
e 22 43
e 23 24
e 23 39
e 23 42
e 23 50
e 24 31
e 25 35
e 26 40
e 26 42
e 27 45
e 27 47
e 28 31
e 28 40
e 28 41
e 29 45
e 29 49
e 30 33
e 32 49
e 33 46
e 34 44
e 35 44
e 36 50
n 10 3
n 21 1
n 28 4
n 34 2
n 48 1
